c colouring generated by benchmark framework
p edge 211 3541
v 1 14
v 2 2
v 3 1
v 4 9
v 5 7
v 6 4
v 7 5
v 8 22
v 9 3
v 10 28
v 11 0
v 12 8
v 13 6
v 14 10
v 15 24
v 16 23
v 17 3
v 18 9
v 19 6
v 20 5
v 21 2
v 22 13
v 23 17
v 24 29
v 25 11
v 26 18
v 27 30
v 28 1
v 29 28
v 30 25
v 31 16
v 32 0
v 33 18
v 34 19
v 35 20
v 36 11
v 37 29
v 38 1
v 39 21
v 40 27
v 41 26
v 42 29
v 43 15
v 44 15
v 45 13
v 46 6
v 47 12
v 48 17
v 49 23
v 50 11
v 51 25
v 52 13
v 53 1
v 54 12
v 55 5
v 56 18
v 57 17
v 58 28
v 59 16
v 60 19
v 61 16
v 62 12
v 63 12
v 64 20
v 65 12
v 66 4
v 67 4
v 68 7
v 69 27
v 70 12
v 71 30
v 72 12
v 73 12
v 74 12
v 75 12
v 76 25
v 77 20
v 78 16
v 79 15
v 80 11
v 81 12
v 82 11
v 83 19
v 84 20
v 85 19
v 86 3
v 87 0
v 88 11
v 89 12
v 90 16
v 91 29
v 92 11
v 93 28
v 94 16
v 95 9
v 96 13
v 97 26
v 98 1
v 99 13
v 100 26
v 101 12
v 102 7
v 103 27
v 104 15
v 105 17
v 106 16
v 107 19
v 108 16
v 109 16
v 110 16
v 111 16
v 112 17
v 113 15
v 114 13
v 115 2
v 116 18
v 117 19
v 118 18
v 119 11
v 120 20
v 121 21
v 122 20
v 123 3
v 124 20
v 125 21
v 126 19
v 127 19
v 128 12
v 129 12
v 130 12
v 131 18
v 132 21
v 133 20
v 134 17
v 135 13
v 136 19
v 137 16
v 138 15
v 139 12
v 140 19
v 141 15
v 142 12
v 143 10
v 144 8
v 145 19
v 146 19
v 147 19
v 148 19
v 149 10
v 150 22
v 151 19
v 152 29
v 153 11
v 154 16
v 155 22
v 156 21
v 157 2
v 158 4
v 159 4
v 160 6
v 161 5
v 162 20
v 163 27
v 164 19
v 165 19
v 166 17
v 167 18
v 168 18
v 169 17
v 170 19
v 171 21
v 172 18
v 173 19
v 174 20
v 175 19
v 176 20
v 177 20
v 178 27
v 179 27
v 180 20
v 181 19
v 182 29
v 183 13
v 184 13
v 185 13
v 186 13
v 187 7
v 188 12
v 189 19
v 190 18
v 191 27
v 192 19
v 193 17
v 194 20
v 195 20
v 196 29
v 197 20
v 198 29
v 199 20
v 200 19
v 201 18
v 202 18
v 203 25
v 204 20
v 205 20
v 206 20
v 207 19
v 208 17
v 209 15
v 210 19
v 211 16
